10 45
1 2 18
1 3 23
1 4 16
1 5 2
1 6 23
1 7 26
1 8 28
1 9 28
1 10 29
2 3 6
2 4 28
2 5 26
2 6 10
2 7 14
2 8 6
2 9 18
2 10 18
3 4 25
3 5 17
3 6 23
3 7 11
3 8 28
3 9 17
3 10 10
4 5 17
4 6 20
4 7 26
4 8 12
4 9 11
4 10 22
5 6 3
5 7 3
5 8 18
5 9 24
5 10 7
6 7 15
6 8 24
6 9 1
6 10 10
7 8 27
7 9 20
7 10 11
8 9 15
8 10 24
9 10 20
